% Instance for pentominoes model generated using https://github.com/zayenz/minizinc-pentominoes-generator
% Instance generated for board size 20 with 5 tiles using 17 as seed
% Generated board
%    55555555551111111111
%    55555555111111111111
%    55555555111111111111
%    55555555222211111222
%    55555555522222122222
%    55555522222222222222
%    55444442222222222222
%    44444442222222222222
%    44444442222222222222
%    44444442222222222222
%    44444442222222222222
%    44444422222222222222
%    44444422222222222222
%    33334422222222222222
%    33334422222222222222
%    33333422222222222222
%    33333222222222222222
%    33333222222222222222
%    33333222222222222222
%    33333322222222222222

size = 20;
tiles = 5;
expressions = [
    "( ([2 3 4 5 6]* 1{10} [2 3 4 5 6] [2 3 4 5 6]{8} 1{12} [2 3 4 5 6] [2 3 4 5 6]{8} 1{12} [2 3 4 5 6] [2 3 4 5 6]{12} 1{5} [2 3 4 5 6]{3} [2 3 4 5 6] [2 3 4 5 6]{14} 1{1}  [2 3 4 5 6]*) | ([2 3 4 5 6]* 1{2} [2 3 4 5 6]{1} [2 3 4 5 6] [2 3 4 5 6]{17} 1{2} [2 3 4 5 6]{1} [2 3 4 5 6] [2 3 4 5 6]{17} 1{3} [2 3 4 5 6] [2 3 4 5 6]{17} 1{3} [2 3 4 5 6] [2 3 4 5 6]{16} 1{4} [2 3 4 5 6] [2 3 4 5 6]{16} 1{4} [2 3 4 5 6] [2 3 4 5 6]{15} 1{5} [2 3 4 5 6] [2 3 4 5 6]{16} 1{4} [2 3 4 5 6] [2 3 4 5 6]{16} 1{4} [2 3 4 5 6] [2 3 4 5 6]{17} 1{3} [2 3 4 5 6] [2 3 4 5 6]{17} 1{3} [2 3 4 5 6] [2 3 4 5 6]{17} 1{3}  [2 3 4 5 6]*) | ([2 3 4 5 6]* 1{1} [2 3 4 5 6]{14} [2 3 4 5 6] [2 3 4 5 6]{3} 1{5} [2 3 4 5 6]{12} [2 3 4 5 6] 1{12} [2 3 4 5 6]{8} [2 3 4 5 6] 1{12} [2 3 4 5 6]{8} [2 3 4 5 6] 1{10}  [2 3 4 5 6]*) | ([2 3 4 5 6]* 1{3} [2 3 4 5 6]{17} [2 3 4 5 6] 1{3} [2 3 4 5 6]{17} [2 3 4 5 6] 1{3} [2 3 4 5 6]{17} [2 3 4 5 6] 1{4} [2 3 4 5 6]{16} [2 3 4 5 6] 1{4} [2 3 4 5 6]{16} [2 3 4 5 6] 1{5} [2 3 4 5 6]{15} [2 3 4 5 6] 1{4} [2 3 4 5 6]{16} [2 3 4 5 6] 1{4} [2 3 4 5 6]{16} [2 3 4 5 6] 1{3} [2 3 4 5 6]{17} [2 3 4 5 6] 1{3} [2 3 4 5 6]{17} [2 3 4 5 6] [2 3 4 5 6]{1} 1{2} [2 3 4 5 6]{17} [2 3 4 5 6] [2 3 4 5 6]{1} 1{2}  [2 3 4 5 6]*) | ([2 3 4 5 6]* 1{10} [2 3 4 5 6]{10} [2 3 4 5 6] 1{12} [2 3 4 5 6]{8} [2 3 4 5 6] 1{12} [2 3 4 5 6]{8} [2 3 4 5 6] [2 3 4 5 6]{3} 1{5} [2 3 4 5 6]{12} [2 3 4 5 6] [2 3 4 5 6]{5} 1{1}  [2 3 4 5 6]*) | ([2 3 4 5 6]* 1{2} [2 3 4 5 6]{17} [2 3 4 5 6] [2 3 4 5 6]{1} 1{2} [2 3 4 5 6]{17} [2 3 4 5 6] 1{3} [2 3 4 5 6]{17} [2 3 4 5 6] 1{3} [2 3 4 5 6]{17} [2 3 4 5 6] 1{4} [2 3 4 5 6]{16} [2 3 4 5 6] 1{4} [2 3 4 5 6]{16} [2 3 4 5 6] 1{5} [2 3 4 5 6]{15} [2 3 4 5 6] 1{4} [2 3 4 5 6]{16} [2 3 4 5 6] 1{4} [2 3 4 5 6]{16} [2 3 4 5 6] 1{3} [2 3 4 5 6]{17} [2 3 4 5 6] 1{3} [2 3 4 5 6]{17} [2 3 4 5 6] 1{3}  [2 3 4 5 6]*) | ([2 3 4 5 6]* 1{1} [2 3 4 5 6]{5} [2 3 4 5 6] [2 3 4 5 6]{12} 1{5} [2 3 4 5 6]{3} [2 3 4 5 6] [2 3 4 5 6]{8} 1{12} [2 3 4 5 6] [2 3 4 5 6]{8} 1{12} [2 3 4 5 6] [2 3 4 5 6]{10} 1{10}  [2 3 4 5 6]*) | ([2 3 4 5 6]* 1{3} [2 3 4 5 6] [2 3 4 5 6]{17} 1{3} [2 3 4 5 6] [2 3 4 5 6]{17} 1{3} [2 3 4 5 6] [2 3 4 5 6]{16} 1{4} [2 3 4 5 6] [2 3 4 5 6]{16} 1{4} [2 3 4 5 6] [2 3 4 5 6]{15} 1{5} [2 3 4 5 6] [2 3 4 5 6]{16} 1{4} [2 3 4 5 6] [2 3 4 5 6]{16} 1{4} [2 3 4 5 6] [2 3 4 5 6]{17} 1{3} [2 3 4 5 6] [2 3 4 5 6]{17} 1{3} [2 3 4 5 6] [2 3 4 5 6]{17} 1{2} [2 3 4 5 6]{1} [2 3 4 5 6] [2 3 4 5 6]{17} 1{2}  [2 3 4 5 6]*) )",
    "( ([1 3 4 5 6]* 2{4} [1 3 4 5 6]{5} 2{3} [1 3 4 5 6] [1 3 4 5 6]{9} 2{5} [1 3 4 5 6]{1} 2{5} [1 3 4 5 6] [1 3 4 5 6]{6} 2{14} [1 3 4 5 6] [1 3 4 5 6]{7} 2{13} [1 3 4 5 6] [1 3 4 5 6]{7} 2{13} [1 3 4 5 6] [1 3 4 5 6]{7} 2{13} [1 3 4 5 6] [1 3 4 5 6]{7} 2{13} [1 3 4 5 6] [1 3 4 5 6]{7} 2{13} [1 3 4 5 6] [1 3 4 5 6]{6} 2{14} [1 3 4 5 6] [1 3 4 5 6]{6} 2{14} [1 3 4 5 6] [1 3 4 5 6]{6} 2{14} [1 3 4 5 6] [1 3 4 5 6]{6} 2{14} [1 3 4 5 6] [1 3 4 5 6]{6} 2{14} [1 3 4 5 6] [1 3 4 5 6]{5} 2{15} [1 3 4 5 6] [1 3 4 5 6]{5} 2{15} [1 3 4 5 6] [1 3 4 5 6]{5} 2{15} [1 3 4 5 6] [1 3 4 5 6]{6} 2{14}  [1 3 4 5 6]*) | ([1 3 4 5 6]* 2{3} [1 3 4 5 6]{16} [1 3 4 5 6] 2{9} [1 3 4 5 6]{5} 2{1} [1 3 4 5 6]{5} [1 3 4 5 6] 2{15} [1 3 4 5 6]{5} [1 3 4 5 6] 2{15} [1 3 4 5 6]{1} 2{1} [1 3 4 5 6]{3} [1 3 4 5 6] 2{17} [1 3 4 5 6]{3} [1 3 4 5 6] 2{17} [1 3 4 5 6]{3} [1 3 4 5 6] 2{17} [1 3 4 5 6]{3} [1 3 4 5 6] 2{16} [1 3 4 5 6]{4} [1 3 4 5 6] 2{16} [1 3 4 5 6]{4} [1 3 4 5 6] 2{15} [1 3 4 5 6]{5} [1 3 4 5 6] 2{16} [1 3 4 5 6]{4} [1 3 4 5 6] 2{16} [1 3 4 5 6]{4} [1 3 4 5 6] 2{17} [1 3 4 5 6]{3} [1 3 4 5 6] 2{17} [1 3 4 5 6]{3} [1 3 4 5 6] 2{17}  [1 3 4 5 6]*) | ([1 3 4 5 6]* 2{14} [1 3 4 5 6]{6} [1 3 4 5 6] 2{15} [1 3 4 5 6]{5} [1 3 4 5 6] 2{15} [1 3 4 5 6]{5} [1 3 4 5 6] 2{15} [1 3 4 5 6]{5} [1 3 4 5 6] 2{14} [1 3 4 5 6]{6} [1 3 4 5 6] 2{14} [1 3 4 5 6]{6} [1 3 4 5 6] 2{14} [1 3 4 5 6]{6} [1 3 4 5 6] 2{14} [1 3 4 5 6]{6} [1 3 4 5 6] 2{14} [1 3 4 5 6]{6} [1 3 4 5 6] 2{13} [1 3 4 5 6]{7} [1 3 4 5 6] 2{13} [1 3 4 5 6]{7} [1 3 4 5 6] 2{13} [1 3 4 5 6]{7} [1 3 4 5 6] 2{13} [1 3 4 5 6]{7} [1 3 4 5 6] 2{13} [1 3 4 5 6]{7} [1 3 4 5 6] 2{14} [1 3 4 5 6]{6} [1 3 4 5 6] 2{5} [1 3 4 5 6]{1} 2{5} [1 3 4 5 6]{9} [1 3 4 5 6] 2{3} [1 3 4 5 6]{5} 2{4}  [1 3 4 5 6]*) | ([1 3 4 5 6]* 2{17} [1 3 4 5 6] [1 3 4 5 6]{3} 2{17} [1 3 4 5 6] [1 3 4 5 6]{3} 2{17} [1 3 4 5 6] [1 3 4 5 6]{4} 2{16} [1 3 4 5 6] [1 3 4 5 6]{4} 2{16} [1 3 4 5 6] [1 3 4 5 6]{5} 2{15} [1 3 4 5 6] [1 3 4 5 6]{4} 2{16} [1 3 4 5 6] [1 3 4 5 6]{4} 2{16} [1 3 4 5 6] [1 3 4 5 6]{3} 2{17} [1 3 4 5 6] [1 3 4 5 6]{3} 2{17} [1 3 4 5 6] [1 3 4 5 6]{3} 2{17} [1 3 4 5 6] [1 3 4 5 6]{3} 2{1} [1 3 4 5 6]{1} 2{15} [1 3 4 5 6] [1 3 4 5 6]{5} 2{15} [1 3 4 5 6] [1 3 4 5 6]{5} 2{1} [1 3 4 5 6]{5} 2{9} [1 3 4 5 6] [1 3 4 5 6]{16} 2{3}  [1 3 4 5 6]*) | ([1 3 4 5 6]* 2{3} [1 3 4 5 6]{5} 2{4} [1 3 4 5 6]{8} [1 3 4 5 6] 2{5} [1 3 4 5 6]{1} 2{5} [1 3 4 5 6]{9} [1 3 4 5 6] 2{14} [1 3 4 5 6]{6} [1 3 4 5 6] 2{13} [1 3 4 5 6]{7} [1 3 4 5 6] 2{13} [1 3 4 5 6]{7} [1 3 4 5 6] 2{13} [1 3 4 5 6]{7} [1 3 4 5 6] 2{13} [1 3 4 5 6]{7} [1 3 4 5 6] 2{13} [1 3 4 5 6]{7} [1 3 4 5 6] 2{14} [1 3 4 5 6]{6} [1 3 4 5 6] 2{14} [1 3 4 5 6]{6} [1 3 4 5 6] 2{14} [1 3 4 5 6]{6} [1 3 4 5 6] 2{14} [1 3 4 5 6]{6} [1 3 4 5 6] 2{14} [1 3 4 5 6]{6} [1 3 4 5 6] 2{15} [1 3 4 5 6]{5} [1 3 4 5 6] 2{15} [1 3 4 5 6]{5} [1 3 4 5 6] 2{15} [1 3 4 5 6]{5} [1 3 4 5 6] 2{14}  [1 3 4 5 6]*) | ([1 3 4 5 6]* 2{3} [1 3 4 5 6]{1} [1 3 4 5 6] [1 3 4 5 6]{5} 2{1} [1 3 4 5 6]{5} 2{9} [1 3 4 5 6] [1 3 4 5 6]{5} 2{15} [1 3 4 5 6] [1 3 4 5 6]{3} 2{1} [1 3 4 5 6]{1} 2{15} [1 3 4 5 6] [1 3 4 5 6]{3} 2{17} [1 3 4 5 6] [1 3 4 5 6]{3} 2{17} [1 3 4 5 6] [1 3 4 5 6]{3} 2{17} [1 3 4 5 6] [1 3 4 5 6]{4} 2{16} [1 3 4 5 6] [1 3 4 5 6]{4} 2{16} [1 3 4 5 6] [1 3 4 5 6]{5} 2{15} [1 3 4 5 6] [1 3 4 5 6]{4} 2{16} [1 3 4 5 6] [1 3 4 5 6]{4} 2{16} [1 3 4 5 6] [1 3 4 5 6]{3} 2{17} [1 3 4 5 6] [1 3 4 5 6]{3} 2{17} [1 3 4 5 6] [1 3 4 5 6]{3} 2{17}  [1 3 4 5 6]*) | ([1 3 4 5 6]* 2{14} [1 3 4 5 6] [1 3 4 5 6]{5} 2{15} [1 3 4 5 6] [1 3 4 5 6]{5} 2{15} [1 3 4 5 6] [1 3 4 5 6]{5} 2{15} [1 3 4 5 6] [1 3 4 5 6]{6} 2{14} [1 3 4 5 6] [1 3 4 5 6]{6} 2{14} [1 3 4 5 6] [1 3 4 5 6]{6} 2{14} [1 3 4 5 6] [1 3 4 5 6]{6} 2{14} [1 3 4 5 6] [1 3 4 5 6]{6} 2{14} [1 3 4 5 6] [1 3 4 5 6]{7} 2{13} [1 3 4 5 6] [1 3 4 5 6]{7} 2{13} [1 3 4 5 6] [1 3 4 5 6]{7} 2{13} [1 3 4 5 6] [1 3 4 5 6]{7} 2{13} [1 3 4 5 6] [1 3 4 5 6]{7} 2{13} [1 3 4 5 6] [1 3 4 5 6]{6} 2{14} [1 3 4 5 6] [1 3 4 5 6]{9} 2{5} [1 3 4 5 6]{1} 2{5} [1 3 4 5 6] [1 3 4 5 6]{8} 2{4} [1 3 4 5 6]{5} 2{3}  [1 3 4 5 6]*) | ([1 3 4 5 6]* 2{17} [1 3 4 5 6]{3} [1 3 4 5 6] 2{17} [1 3 4 5 6]{3} [1 3 4 5 6] 2{17} [1 3 4 5 6]{3} [1 3 4 5 6] 2{16} [1 3 4 5 6]{4} [1 3 4 5 6] 2{16} [1 3 4 5 6]{4} [1 3 4 5 6] 2{15} [1 3 4 5 6]{5} [1 3 4 5 6] 2{16} [1 3 4 5 6]{4} [1 3 4 5 6] 2{16} [1 3 4 5 6]{4} [1 3 4 5 6] 2{17} [1 3 4 5 6]{3} [1 3 4 5 6] 2{17} [1 3 4 5 6]{3} [1 3 4 5 6] 2{17} [1 3 4 5 6]{3} [1 3 4 5 6] 2{15} [1 3 4 5 6]{1} 2{1} [1 3 4 5 6]{3} [1 3 4 5 6] 2{15} [1 3 4 5 6]{5} [1 3 4 5 6] 2{9} [1 3 4 5 6]{5} 2{1} [1 3 4 5 6]{5} [1 3 4 5 6] [1 3 4 5 6]{1} 2{3}  [1 3 4 5 6]*) )",
    "( ([1 2 4 5 6]* 3{4} [1 2 4 5 6]{16} [1 2 4 5 6] 3{4} [1 2 4 5 6]{16} [1 2 4 5 6] 3{5} [1 2 4 5 6]{15} [1 2 4 5 6] 3{5} [1 2 4 5 6]{15} [1 2 4 5 6] 3{5} [1 2 4 5 6]{15} [1 2 4 5 6] 3{5} [1 2 4 5 6]{15} [1 2 4 5 6] 3{6}  [1 2 4 5 6]*) | ([1 2 4 5 6]* 3{7} [1 2 4 5 6]{13} [1 2 4 5 6] 3{7} [1 2 4 5 6]{13} [1 2 4 5 6] 3{7} [1 2 4 5 6]{13} [1 2 4 5 6] 3{7} [1 2 4 5 6]{13} [1 2 4 5 6] 3{5} [1 2 4 5 6]{15} [1 2 4 5 6] 3{1}  [1 2 4 5 6]*) | ([1 2 4 5 6]* 3{6} [1 2 4 5 6] [1 2 4 5 6]{15} 3{5} [1 2 4 5 6] [1 2 4 5 6]{15} 3{5} [1 2 4 5 6] [1 2 4 5 6]{15} 3{5} [1 2 4 5 6] [1 2 4 5 6]{15} 3{5} [1 2 4 5 6] [1 2 4 5 6]{16} 3{4} [1 2 4 5 6] [1 2 4 5 6]{16} 3{4}  [1 2 4 5 6]*) | ([1 2 4 5 6]* 3{1} [1 2 4 5 6] [1 2 4 5 6]{15} 3{5} [1 2 4 5 6] [1 2 4 5 6]{13} 3{7} [1 2 4 5 6] [1 2 4 5 6]{13} 3{7} [1 2 4 5 6] [1 2 4 5 6]{13} 3{7} [1 2 4 5 6] [1 2 4 5 6]{13} 3{7}  [1 2 4 5 6]*) | ([1 2 4 5 6]* 3{4} [1 2 4 5 6] [1 2 4 5 6]{16} 3{4} [1 2 4 5 6] [1 2 4 5 6]{15} 3{5} [1 2 4 5 6] [1 2 4 5 6]{15} 3{5} [1 2 4 5 6] [1 2 4 5 6]{15} 3{5} [1 2 4 5 6] [1 2 4 5 6]{15} 3{5} [1 2 4 5 6] [1 2 4 5 6]{14} 3{6}  [1 2 4 5 6]*) | ([1 2 4 5 6]* 3{7} [1 2 4 5 6] [1 2 4 5 6]{13} 3{7} [1 2 4 5 6] [1 2 4 5 6]{13} 3{7} [1 2 4 5 6] [1 2 4 5 6]{13} 3{7} [1 2 4 5 6] [1 2 4 5 6]{15} 3{5} [1 2 4 5 6] [1 2 4 5 6]{19} 3{1}  [1 2 4 5 6]*) | ([1 2 4 5 6]* 3{6} [1 2 4 5 6]{14} [1 2 4 5 6] 3{5} [1 2 4 5 6]{15} [1 2 4 5 6] 3{5} [1 2 4 5 6]{15} [1 2 4 5 6] 3{5} [1 2 4 5 6]{15} [1 2 4 5 6] 3{5} [1 2 4 5 6]{15} [1 2 4 5 6] 3{4} [1 2 4 5 6]{16} [1 2 4 5 6] 3{4}  [1 2 4 5 6]*) | ([1 2 4 5 6]* 3{1} [1 2 4 5 6]{19} [1 2 4 5 6] 3{5} [1 2 4 5 6]{15} [1 2 4 5 6] 3{7} [1 2 4 5 6]{13} [1 2 4 5 6] 3{7} [1 2 4 5 6]{13} [1 2 4 5 6] 3{7} [1 2 4 5 6]{13} [1 2 4 5 6] 3{7}  [1 2 4 5 6]*) )",
    "( ([1 2 3 5 6]* 4{5} [1 2 3 5 6]{13} [1 2 3 5 6] 4{7} [1 2 3 5 6]{13} [1 2 3 5 6] 4{7} [1 2 3 5 6]{13} [1 2 3 5 6] 4{7} [1 2 3 5 6]{13} [1 2 3 5 6] 4{7} [1 2 3 5 6]{13} [1 2 3 5 6] 4{6} [1 2 3 5 6]{14} [1 2 3 5 6] 4{6} [1 2 3 5 6]{14} [1 2 3 5 6] [1 2 3 5 6]{4} 4{2} [1 2 3 5 6]{14} [1 2 3 5 6] [1 2 3 5 6]{4} 4{2} [1 2 3 5 6]{14} [1 2 3 5 6] [1 2 3 5 6]{5} 4{1}  [1 2 3 5 6]*) | ([1 2 3 5 6]* 4{6} [1 2 3 5 6]{7} [1 2 3 5 6] [1 2 3 5 6]{7} 4{6} [1 2 3 5 6]{7} [1 2 3 5 6] [1 2 3 5 6]{7} 4{7} [1 2 3 5 6]{6} [1 2 3 5 6] [1 2 3 5 6]{7} 4{7} [1 2 3 5 6]{6} [1 2 3 5 6] [1 2 3 5 6]{5} 4{9} [1 2 3 5 6]{6} [1 2 3 5 6] [1 2 3 5 6]{4} 4{10} [1 2 3 5 6]{6} [1 2 3 5 6] [1 2 3 5 6]{9} 4{5}  [1 2 3 5 6]*) | ([1 2 3 5 6]* 4{1} [1 2 3 5 6]{5} [1 2 3 5 6] [1 2 3 5 6]{14} 4{2} [1 2 3 5 6]{4} [1 2 3 5 6] [1 2 3 5 6]{14} 4{2} [1 2 3 5 6]{4} [1 2 3 5 6] [1 2 3 5 6]{14} 4{6} [1 2 3 5 6] [1 2 3 5 6]{14} 4{6} [1 2 3 5 6] [1 2 3 5 6]{13} 4{7} [1 2 3 5 6] [1 2 3 5 6]{13} 4{7} [1 2 3 5 6] [1 2 3 5 6]{13} 4{7} [1 2 3 5 6] [1 2 3 5 6]{13} 4{7} [1 2 3 5 6] [1 2 3 5 6]{13} 4{5}  [1 2 3 5 6]*) | ([1 2 3 5 6]* 4{5} [1 2 3 5 6]{9} [1 2 3 5 6] [1 2 3 5 6]{6} 4{10} [1 2 3 5 6]{4} [1 2 3 5 6] [1 2 3 5 6]{6} 4{9} [1 2 3 5 6]{5} [1 2 3 5 6] [1 2 3 5 6]{6} 4{7} [1 2 3 5 6]{7} [1 2 3 5 6] [1 2 3 5 6]{6} 4{7} [1 2 3 5 6]{7} [1 2 3 5 6] [1 2 3 5 6]{7} 4{6} [1 2 3 5 6]{7} [1 2 3 5 6] [1 2 3 5 6]{7} 4{6}  [1 2 3 5 6]*) | ([1 2 3 5 6]* 4{5} [1 2 3 5 6]{2} [1 2 3 5 6] [1 2 3 5 6]{13} 4{7} [1 2 3 5 6] [1 2 3 5 6]{13} 4{7} [1 2 3 5 6] [1 2 3 5 6]{13} 4{7} [1 2 3 5 6] [1 2 3 5 6]{13} 4{7} [1 2 3 5 6] [1 2 3 5 6]{14} 4{6} [1 2 3 5 6] [1 2 3 5 6]{14} 4{6} [1 2 3 5 6] [1 2 3 5 6]{14} 4{2} [1 2 3 5 6]{4} [1 2 3 5 6] [1 2 3 5 6]{14} 4{2} [1 2 3 5 6]{4} [1 2 3 5 6] [1 2 3 5 6]{14} 4{1}  [1 2 3 5 6]*) | ([1 2 3 5 6]* 4{6} [1 2 3 5 6]{7} [1 2 3 5 6] [1 2 3 5 6]{7} 4{6} [1 2 3 5 6]{7} [1 2 3 5 6] [1 2 3 5 6]{6} 4{7} [1 2 3 5 6]{7} [1 2 3 5 6] [1 2 3 5 6]{6} 4{7} [1 2 3 5 6]{7} [1 2 3 5 6] [1 2 3 5 6]{6} 4{9} [1 2 3 5 6]{5} [1 2 3 5 6] [1 2 3 5 6]{6} 4{10} [1 2 3 5 6]{4} [1 2 3 5 6] [1 2 3 5 6]{6} 4{5}  [1 2 3 5 6]*) | ([1 2 3 5 6]* 4{1} [1 2 3 5 6]{14} [1 2 3 5 6] [1 2 3 5 6]{4} 4{2} [1 2 3 5 6]{14} [1 2 3 5 6] [1 2 3 5 6]{4} 4{2} [1 2 3 5 6]{14} [1 2 3 5 6] 4{6} [1 2 3 5 6]{14} [1 2 3 5 6] 4{6} [1 2 3 5 6]{14} [1 2 3 5 6] 4{7} [1 2 3 5 6]{13} [1 2 3 5 6] 4{7} [1 2 3 5 6]{13} [1 2 3 5 6] 4{7} [1 2 3 5 6]{13} [1 2 3 5 6] 4{7} [1 2 3 5 6]{13} [1 2 3 5 6] [1 2 3 5 6]{2} 4{5}  [1 2 3 5 6]*) | ([1 2 3 5 6]* 4{5} [1 2 3 5 6]{6} [1 2 3 5 6] [1 2 3 5 6]{4} 4{10} [1 2 3 5 6]{6} [1 2 3 5 6] [1 2 3 5 6]{5} 4{9} [1 2 3 5 6]{6} [1 2 3 5 6] [1 2 3 5 6]{7} 4{7} [1 2 3 5 6]{6} [1 2 3 5 6] [1 2 3 5 6]{7} 4{7} [1 2 3 5 6]{6} [1 2 3 5 6] [1 2 3 5 6]{7} 4{6} [1 2 3 5 6]{7} [1 2 3 5 6] [1 2 3 5 6]{7} 4{6}  [1 2 3 5 6]*) )",
    "( ([1 2 3 4 6]* 5{10} [1 2 3 4 6]{10} [1 2 3 4 6] 5{8} [1 2 3 4 6]{12} [1 2 3 4 6] 5{8} [1 2 3 4 6]{12} [1 2 3 4 6] 5{8} [1 2 3 4 6]{12} [1 2 3 4 6] 5{9} [1 2 3 4 6]{11} [1 2 3 4 6] 5{6} [1 2 3 4 6]{14} [1 2 3 4 6] 5{2}  [1 2 3 4 6]*) | ([1 2 3 4 6]* 5{7} [1 2 3 4 6] [1 2 3 4 6]{13} 5{7} [1 2 3 4 6] [1 2 3 4 6]{14} 5{6} [1 2 3 4 6] [1 2 3 4 6]{14} 5{6} [1 2 3 4 6] [1 2 3 4 6]{14} 5{6} [1 2 3 4 6] [1 2 3 4 6]{14} 5{6} [1 2 3 4 6] [1 2 3 4 6]{15} 5{5} [1 2 3 4 6] [1 2 3 4 6]{15} 5{5} [1 2 3 4 6] [1 2 3 4 6]{15} 5{1} [1 2 3 4 6]{3} 5{1} [1 2 3 4 6] [1 2 3 4 6]{19} 5{1}  [1 2 3 4 6]*) | ([1 2 3 4 6]* 5{2} [1 2 3 4 6] [1 2 3 4 6]{14} 5{6} [1 2 3 4 6] [1 2 3 4 6]{11} 5{9} [1 2 3 4 6] [1 2 3 4 6]{12} 5{8} [1 2 3 4 6] [1 2 3 4 6]{12} 5{8} [1 2 3 4 6] [1 2 3 4 6]{12} 5{8} [1 2 3 4 6] [1 2 3 4 6]{10} 5{10}  [1 2 3 4 6]*) | ([1 2 3 4 6]* 5{1} [1 2 3 4 6]{19} [1 2 3 4 6] 5{1} [1 2 3 4 6]{3} 5{1} [1 2 3 4 6]{15} [1 2 3 4 6] 5{5} [1 2 3 4 6]{15} [1 2 3 4 6] 5{5} [1 2 3 4 6]{15} [1 2 3 4 6] 5{6} [1 2 3 4 6]{14} [1 2 3 4 6] 5{6} [1 2 3 4 6]{14} [1 2 3 4 6] 5{6} [1 2 3 4 6]{14} [1 2 3 4 6] 5{6} [1 2 3 4 6]{14} [1 2 3 4 6] 5{7} [1 2 3 4 6]{13} [1 2 3 4 6] 5{7}  [1 2 3 4 6]*) | ([1 2 3 4 6]* 5{10} [1 2 3 4 6] [1 2 3 4 6]{12} 5{8} [1 2 3 4 6] [1 2 3 4 6]{12} 5{8} [1 2 3 4 6] [1 2 3 4 6]{12} 5{8} [1 2 3 4 6] [1 2 3 4 6]{11} 5{9} [1 2 3 4 6] [1 2 3 4 6]{14} 5{6} [1 2 3 4 6] [1 2 3 4 6]{18} 5{2}  [1 2 3 4 6]*) | ([1 2 3 4 6]* 5{7} [1 2 3 4 6]{13} [1 2 3 4 6] 5{7} [1 2 3 4 6]{13} [1 2 3 4 6] 5{6} [1 2 3 4 6]{14} [1 2 3 4 6] 5{6} [1 2 3 4 6]{14} [1 2 3 4 6] 5{6} [1 2 3 4 6]{14} [1 2 3 4 6] 5{6} [1 2 3 4 6]{14} [1 2 3 4 6] 5{5} [1 2 3 4 6]{15} [1 2 3 4 6] 5{5} [1 2 3 4 6]{15} [1 2 3 4 6] 5{1} [1 2 3 4 6]{3} 5{1} [1 2 3 4 6]{15} [1 2 3 4 6] 5{1}  [1 2 3 4 6]*) | ([1 2 3 4 6]* 5{2} [1 2 3 4 6]{18} [1 2 3 4 6] 5{6} [1 2 3 4 6]{14} [1 2 3 4 6] 5{9} [1 2 3 4 6]{11} [1 2 3 4 6] 5{8} [1 2 3 4 6]{12} [1 2 3 4 6] 5{8} [1 2 3 4 6]{12} [1 2 3 4 6] 5{8} [1 2 3 4 6]{12} [1 2 3 4 6] 5{10}  [1 2 3 4 6]*) | ([1 2 3 4 6]* 5{1} [1 2 3 4 6] [1 2 3 4 6]{15} 5{1} [1 2 3 4 6]{3} 5{1} [1 2 3 4 6] [1 2 3 4 6]{15} 5{5} [1 2 3 4 6] [1 2 3 4 6]{15} 5{5} [1 2 3 4 6] [1 2 3 4 6]{14} 5{6} [1 2 3 4 6] [1 2 3 4 6]{14} 5{6} [1 2 3 4 6] [1 2 3 4 6]{14} 5{6} [1 2 3 4 6] [1 2 3 4 6]{14} 5{6} [1 2 3 4 6] [1 2 3 4 6]{13} 5{7} [1 2 3 4 6] [1 2 3 4 6]{13} 5{7}  [1 2 3 4 6]*) )",
];
